Version identifier: 22.1.1.0 | 2022-11-28 | 9160aff4d
CPXPARAM_Threads                                 1
CPXPARAM_MIP_Strategy_VariableSelect             3
CPXPARAM_TimeLimit                               599.99999276200003
1 of 1 MIP starts provided solutions.
MIP start 'm1' defined initial solution with objective 119.0000.
Tried aggregator 1 time.
MIP Presolve eliminated 725 rows and 1428 columns.
Reduced MIP has 1785 rows, 2856 columns, and 23462 nonzeros.
Reduced MIP has 2856 binaries, 0 generals, 0 SOSs, and 0 indicators.
Presolve time = 0.01 sec. (13.13 ticks)
Probing time = 0.00 sec. (2.71 ticks)
Tried aggregator 1 time.
Detecting symmetries...
Reduced MIP has 1785 rows, 2856 columns, and 23462 nonzeros.
Reduced MIP has 2856 binaries, 0 generals, 0 SOSs, and 0 indicators.
Presolve time = 0.01 sec. (12.75 ticks)
Probing time = 0.00 sec. (2.71 ticks)
Clique table members: 712.
MIP emphasis: balance optimality and feasibility.
MIP search method: dynamic search.
Parallel mode: none, using 1 thread.
Root relaxation solution time = 0.02 sec. (29.00 ticks)

        Nodes                                         Cuts/
   Node  Left     Objective  IInf  Best Integer    Best Bound    ItCnt     Gap

*     0+    0                          119.0000     2856.0000              --- 
      0     0      357.0000    84      119.0000      357.0000      981  200.00%
*     0+    0                          357.0000      357.0000             0.00%
      0     0        cutoff            357.0000      357.0000      981    0.00%
Elapsed time = 0.10 sec. (146.67 ticks, tree = 0.01 MB, solutions = 2)

Root node processing (before b&c):
  Real time             =    0.10 sec. (146.84 ticks)
Sequential b&c:
  Real time             =    0.00 sec. (0.00 ticks)
                          ------------
Total (root+branch&cut) =    0.10 sec. (146.84 ticks)
Primal:	357
Dual:	357
Status:	Optimal
Time:	0.12
Sequence:
	0
	1
	9
	5
	10
	0
	9
	9
	9
	9
	9
	0
	5
	9
	4
	5
	9
	1
	9
	0
	10
	9
	8
	10
	10
	0
	9
	9
	9
	9
	9
	9
	10
	9
	9
	9
	9
	9
	9
	9
	9
	9
	9
	10
	9
	9
	9
	9
	9
	9
	9
	9
	9
	9
	9
	9
	9
	0
	4
	5
	0
	9
	9
	5
	9
	0
	4
	10
	10
	9
	5
	0
	5
	9
	2
	5
	5
	9
	5
	5
	9
	5
	5
	9
	5
	0
	4
	5
	1
	5
	9
	5
	9
	4
	0
	1
	4
	0
	5
	4
	0
	5
	1
	9
	9
	0
	5
	5
	9
	0
	10
	4
	0
	5
	1
	8
	1
	5
	9
	5
	0
	4
	5
	0
	5
	4
	0
	5
	4
	0
	5
	4
	0
	9
	9
	9
	9
	9
	9
	5
	5
	9
	9
	5
	9
	9
	9
	9
	9
	9
	9
	9
	9
	9
	9
	9
	0
	9
	4
	4
	0
	4
	1
	0
	1
	4
	0
	4
	1
	5
	9
	9
	5
	4
	9
	0
	9
	4
	1
	1
	1
	8
	1
	4
	1
	1
	10
	4
	5
	9
	0
	4
	4
	0
	5
	9
	8
	5
	9
	9
	5
	9
	0
	5
	9
	0
	1
	9
	0
	4
	1
	1
	1
	4
	5
	2
	9
	4
	4
	0
	5
	4
	0
	9
	4
	0
	4
	1
	5
	9
	0
	5
	9
	5
	0
	9
	5
	5
	0
	4
	10
	5
	0
	9
	5
	0
	9
	5
	0
	5
	4
	0
	4
	4
	0
	9
	4
	9
	4
	0
	5
	9
	5
	2
	5
	5
	9
	0
	10
	4
	0
	5
	4
	9
	4
	0
	4
	9
	9
	9
	9
	9
	0
	9
	5
	0
	10
	4
	9
	5
	5
	9
	5
	9
	5
	0
	5
	9
	1
	4
	0
	9
	5
	5
	9
	9
	5
	5
	0
	4
	9
	0
	4
	10
	1
	4
	5
	0
	9
	5
	10
	0
	4
	4
	9
	4
	0
	4
	4
	0
	4
	4
	1
	4
	0
	5
	9
	0
	9
	1
	0
	4
	1
	1
	4
	0
	4
	4
	1
	1
	4
	1
	0
	9
	5
	1
	0
